c Random generated cnf formula, satisfiable: true
p cnf 10 50
2 6 -10 0
8 9 -3 0
-7 2 -6 0
9 -6 -5 0
9 10 -3 0
-8 1 -4 0
-9 1 2 0
-2 1 -10 0
4 -3 6 0
-2 -5 -4 0
3 -4 -5 0
-10 7 -1 0
10 -3 -9 0
3 -4 7 0
-6 -4 9 0
1 3 -10 0
-4 9 -2 0
-4 9 -1 0
6 1 -9 0
-9 1 -3 0
-6 2 10 0
-1 2 10 0
9 7 8 0
-4 8 10 0
-2 -10 1 0
-1 -9 8 0
5 4 10 0
1 -9 10 0
10 5 3 0
-4 -7 9 0
-7 10 -2 0
6 2 9 0
1 7 -2 0
6 9 2 0
2 -4 6 0
-8 -1 -4 0
9 -7 -4 0
-2 -3 7 0
-4 6 -8 0
-1 -2 -4 0
3 8 9 0
10 -3 7 0
5 -10 -2 0
1 -7 -2 0
10 9 7 0
-7 -10 2 0
7 -5 -10 0
4 8 -7 0
-1 -9 -8 0
10 6 -4 0
